c nIsolatedPIs 0
c maxPI 32
p cnf 244 637
c gate 33 6 -22 0
6 -33 0
-22 -33 0
-6 22 33 0
c gate 34 -2 18 0
-2 -34 0
18 -34 0
2 -18 34 0
c gate 35 -1 17 0
-1 -35 0
17 -35 0
1 -17 35 0
c gate 36 -34 -35 0
-34 -36 0
-35 -36 0
34 35 36 0
c gate 37 2 -18 0
2 -37 0
-18 -37 0
-2 18 37 0
c gate 38 3 -19 0
3 -38 0
-19 -38 0
-3 19 38 0
c gate 39 -37 -38 0
-37 -39 0
-38 -39 0
37 38 39 0
c gate 40 -36 39 0
-36 -40 0
39 -40 0
36 -39 40 0
c gate 41 -4 20 0
-4 -41 0
20 -41 0
4 -20 41 0
c gate 42 -3 19 0
-3 -42 0
19 -42 0
3 -19 42 0
c gate 43 -41 -42 0
-41 -43 0
-42 -43 0
41 42 43 0
c gate 44 -40 43 0
-40 -44 0
43 -44 0
40 -43 44 0
c gate 45 5 -21 0
5 -45 0
-21 -45 0
-5 21 45 0
c gate 46 4 -20 0
4 -46 0
-20 -46 0
-4 20 46 0
c gate 47 -45 -46 0
-45 -47 0
-46 -47 0
45 46 47 0
c gate 48 -44 47 0
-44 -48 0
47 -48 0
44 -47 48 0
c gate 49 -6 -22 0
-6 -49 0
-22 -49 0
6 22 49 0
c gate 50 6 22 0
6 -50 0
22 -50 0
-6 -22 50 0
c gate 51 -49 -50 0
-49 -51 0
-50 -51 0
49 50 51 0
c gate 52 -5 21 0
-5 -52 0
21 -52 0
5 -21 52 0
c gate 53 -51 -52 0
-51 -53 0
-52 -53 0
51 52 53 0
c gate 54 -48 53 0
-48 -54 0
53 -54 0
48 -53 54 0
c gate 55 -33 -54 0
-33 -55 0
-54 -55 0
33 54 55 0
c gate 56 -7 -23 0
-7 -56 0
-23 -56 0
7 23 56 0
c gate 57 7 23 0
7 -57 0
23 -57 0
-7 -23 57 0
c gate 58 -56 -57 0
-56 -58 0
-57 -58 0
56 57 58 0
c gate 59 -55 -58 0
-55 -59 0
-58 -59 0
55 58 59 0
c gate 60 8 24 0
8 -60 0
24 -60 0
-8 -24 60 0
c gate 61 -8 -24 0
-8 -61 0
-24 -61 0
8 24 61 0
c gate 62 -60 -61 0
-60 -62 0
-61 -62 0
60 61 62 0
c gate 63 7 -23 0
7 -63 0
-23 -63 0
-7 23 63 0
c gate 64 -62 63 0
-62 -64 0
63 -64 0
62 -63 64 0
c gate 65 -59 -64 0
-59 -65 0
-64 -65 0
59 64 65 0
c gate 66 -13 -29 0
-13 -66 0
-29 -66 0
13 29 66 0
c gate 67 13 29 0
13 -67 0
29 -67 0
-13 -29 67 0
c gate 68 -66 -67 0
-66 -68 0
-67 -68 0
66 67 68 0
c gate 69 -12 -28 0
-12 -69 0
-28 -69 0
12 28 69 0
c gate 70 12 28 0
12 -70 0
28 -70 0
-12 -28 70 0
c gate 71 -11 -27 0
-11 -71 0
-27 -71 0
11 27 71 0
c gate 72 11 27 0
11 -72 0
27 -72 0
-11 -27 72 0
c gate 73 -10 -26 0
-10 -73 0
-26 -73 0
10 26 73 0
c gate 74 10 26 0
10 -74 0
26 -74 0
-10 -26 74 0
c gate 75 9 25 0
9 -75 0
25 -75 0
-9 -25 75 0
c gate 76 -74 -75 0
-74 -76 0
-75 -76 0
74 75 76 0
c gate 77 -5 -21 0
-5 -77 0
-21 -77 0
5 21 77 0
c gate 78 -4 -20 0
-4 -78 0
-20 -78 0
4 20 78 0
c gate 79 -77 -78 0
-77 -79 0
-78 -79 0
77 78 79 0
c gate 80 1 17 0
1 -80 0
17 -80 0
-1 -17 80 0
c gate 81 2 18 0
2 -81 0
18 -81 0
-2 -18 81 0
c gate 82 -80 -81 0
-80 -82 0
-81 -82 0
80 81 82 0
c gate 83 -38 -42 0
-38 -83 0
-42 -83 0
38 42 83 0
c gate 84 -2 -18 0
-2 -84 0
-18 -84 0
2 18 84 0
c gate 85 -83 -84 0
-83 -85 0
-84 -85 0
83 84 85 0
c gate 86 -82 85 0
-82 -86 0
85 -86 0
82 -85 86 0
c gate 87 3 19 0
3 -87 0
19 -87 0
-3 -19 87 0
c gate 88 4 20 0
4 -88 0
20 -88 0
-4 -20 88 0
c gate 89 -87 -88 0
-87 -89 0
-88 -89 0
87 88 89 0
c gate 90 -86 89 0
-86 -90 0
89 -90 0
86 -89 90 0
c gate 91 79 -90 0
79 -91 0
-90 -91 0
-79 90 91 0
c gate 92 5 21 0
5 -92 0
21 -92 0
-5 -21 92 0
c gate 93 51 -92 0
51 -93 0
-92 -93 0
-51 92 93 0
c gate 94 -91 93 0
-91 -94 0
93 -94 0
91 -93 94 0
c gate 95 -49 -94 0
-49 -95 0
-94 -95 0
49 94 95 0
c gate 96 58 -95 0
58 -96 0
-95 -96 0
-58 95 96 0
c gate 97 62 96 0
62 -97 0
96 -97 0
-62 -96 97 0
c gate 98 56 -60 0
56 -98 0
-60 -98 0
-56 60 98 0
c gate 99 -9 -25 0
-9 -99 0
-25 -99 0
9 25 99 0
c gate 100 -61 -99 0
-61 -100 0
-99 -100 0
61 99 100 0
c gate 101 -98 100 0
-98 -101 0
100 -101 0
98 -100 101 0
c gate 102 -97 101 0
-97 -102 0
101 -102 0
97 -101 102 0
c gate 103 76 -102 0
76 -103 0
-102 -103 0
-76 102 103 0
c gate 104 -73 -103 0
-73 -104 0
-103 -104 0
73 103 104 0
c gate 105 -72 -104 0
-72 -105 0
-104 -105 0
72 104 105 0
c gate 106 -71 -105 0
-71 -106 0
-105 -106 0
71 105 106 0
c gate 107 -70 -106 0
-70 -107 0
-106 -107 0
70 106 107 0
c gate 108 -69 -107 0
-69 -108 0
-107 -108 0
69 107 108 0
c gate 109 -68 108 0
-68 -109 0
108 -109 0
68 -108 109 0
c gate 110 -69 -70 0
-69 -110 0
-70 -110 0
69 70 110 0
c gate 111 68 110 0
68 -111 0
110 -111 0
-68 -110 111 0
c gate 112 106 111 0
106 -112 0
111 -112 0
-106 -111 112 0
c gate 113 -109 -112 0
-109 -113 0
-112 -113 0
109 112 113 0
c gate 114 -94 -96 0
-94 -114 0
-96 -114 0
94 96 114 0
c gate 115 80 81 0
80 -115 0
81 -115 0
-80 -81 115 0
c gate 116 114 115 0
114 -116 0
115 -116 0
-114 -115 116 0
c gate 117 -97 -116 0
-97 -117 0
-116 -117 0
97 116 117 0
c gate 118 113 117 0
113 -118 0
117 -118 0
-113 -117 118 0
c gate 119 76 -101 0
76 -119 0
-101 -119 0
-76 101 119 0
c gate 120 -71 -73 0
-71 -120 0
-73 -120 0
71 73 120 0
c gate 121 110 120 0
110 -121 0
120 -121 0
-110 -120 121 0
c gate 122 -119 121 0
-119 -122 0
121 -122 0
119 -121 122 0
c gate 123 -106 122 0
-106 -123 0
122 -123 0
106 -122 123 0
c gate 124 97 -123 0
97 -124 0
-123 -124 0
-97 123 124 0
c gate 125 113 -124 0
113 -125 0
-124 -125 0
-113 124 125 0
c gate 126 16 32 0
16 -126 0
32 -126 0
-16 -32 126 0
c gate 127 -16 -32 0
-16 -127 0
-32 -127 0
16 32 127 0
c gate 128 -126 -127 0
-126 -128 0
-127 -128 0
126 127 128 0
c gate 129 -15 -31 0
-15 -129 0
-31 -129 0
15 31 129 0
c gate 130 15 31 0
15 -130 0
31 -130 0
-15 -31 130 0
c gate 131 -14 -30 0
-14 -131 0
-30 -131 0
14 30 131 0
c gate 132 14 30 0
14 -132 0
30 -132 0
-14 -30 132 0
c gate 133 -131 -132 0
-131 -133 0
-132 -133 0
131 132 133 0
c gate 134 -67 -108 0
-67 -134 0
-108 -134 0
67 108 134 0
c gate 135 -66 -134 0
-66 -135 0
-134 -135 0
66 134 135 0
c gate 136 133 -135 0
133 -136 0
-135 -136 0
-133 135 136 0
c gate 137 -131 -136 0
-131 -137 0
-136 -137 0
131 136 137 0
c gate 138 -130 -137 0
-130 -138 0
-137 -138 0
130 137 138 0
c gate 139 -129 -138 0
-129 -139 0
-138 -139 0
129 138 139 0
c gate 140 128 -139 0
128 -140 0
-139 -140 0
-128 139 140 0
c gate 141 -128 139 0
-128 -141 0
139 -141 0
128 -139 141 0
c gate 142 -140 -141 0
-140 -142 0
-141 -142 0
140 141 142 0
c gate 143 -67 -70 0
-67 -143 0
-70 -143 0
67 70 143 0
c gate 144 133 143 0
133 -144 0
143 -144 0
-133 -143 144 0
c gate 145 -133 -143 0
-133 -145 0
-143 -145 0
133 143 145 0
c gate 146 -144 -145 0
-144 -146 0
-145 -146 0
144 145 146 0
c gate 147 -133 135 0
-133 -147 0
135 -147 0
133 -135 147 0
c gate 148 -136 -147 0
-136 -148 0
-147 -148 0
136 147 148 0
c gate 149 146 -148 0
146 -149 0
-148 -149 0
-146 148 149 0
c gate 150 -109 -149 0
-109 -150 0
-149 -150 0
109 149 150 0
c gate 151 -146 148 0
-146 -151 0
148 -151 0
146 -148 151 0
c gate 152 -149 -151 0
-149 -152 0
-151 -152 0
149 151 152 0
c gate 153 -147 -152 0
-147 -153 0
-152 -153 0
147 152 153 0
c gate 154 -150 -153 0
-150 -154 0
-153 -154 0
150 153 154 0
c gate 155 137 -144 0
137 -155 0
-144 -155 0
-137 144 155 0
c gate 156 -129 -130 0
-129 -156 0
-130 -156 0
129 130 156 0
c gate 157 -137 -156 0
-137 -157 0
-156 -157 0
137 156 157 0
c gate 158 -131 -144 0
-131 -158 0
-144 -158 0
131 144 158 0
c gate 159 156 -158 0
156 -159 0
-158 -159 0
-156 158 159 0
c gate 160 -157 -159 0
-157 -160 0
-159 -160 0
157 159 160 0
c gate 161 -155 160 0
-155 -161 0
160 -161 0
155 -160 161 0
c gate 162 -154 -161 0
-154 -162 0
-161 -162 0
154 161 162 0
c gate 163 -142 -162 0
-142 -163 0
-162 -163 0
142 162 163 0
c gate 164 142 162 0
142 -164 0
162 -164 0
-142 -162 164 0
c gate 165 -129 -159 0
-129 -165 0
-159 -165 0
129 159 165 0
c gate 166 128 -165 0
128 -166 0
-165 -166 0
-128 165 166 0
c gate 167 -128 165 0
-128 -167 0
165 -167 0
128 -165 167 0
c gate 168 -166 -167 0
-166 -168 0
-167 -168 0
166 167 168 0
c gate 169 -164 168 0
-164 -169 0
168 -169 0
164 -168 169 0
c gate 170 -163 -169 0
-163 -170 0
-169 -170 0
163 169 170 0
c gate 171 -125 170 0
-125 -171 0
170 -171 0
125 -170 171 0
c gate 172 -118 -171 0
-118 -172 0
-171 -172 0
118 171 172 0
c gate 173 54 58 0
54 -173 0
58 -173 0
-54 -58 173 0
c gate 174 -59 -173 0
-59 -174 0
-173 -174 0
59 173 174 0
c gate 175 139 166 0
139 -175 0
166 -175 0
-139 -166 175 0
c gate 176 174 -175 0
174 -176 0
-175 -176 0
-174 175 176 0
c gate 177 172 176 0
172 -177 0
176 -177 0
-172 -176 177 0
c gate 178 -126 -166 0
-126 -178 0
-166 -178 0
126 166 178 0
c gate 179 174 178 0
174 -179 0
178 -179 0
-174 -178 179 0
c gate 180 140 179 0
140 -180 0
179 -180 0
-140 -179 180 0
c gate 181 -173 -180 0
-173 -181 0
-180 -181 0
173 180 181 0
c gate 182 -177 181 0
-177 -182 0
181 -182 0
177 -181 182 0
c gate 183 -10 26 0
-10 -183 0
26 -183 0
10 -26 183 0
c gate 184 -9 25 0
-9 -184 0
25 -184 0
9 -25 184 0
c gate 185 8 -24 0
8 -185 0
-24 -185 0
-8 24 185 0
c gate 186 9 -25 0
9 -186 0
-25 -186 0
-9 25 186 0
c gate 187 -185 -186 0
-185 -187 0
-186 -187 0
185 186 187 0
c gate 188 -62 -65 0
-62 -188 0
-65 -188 0
62 65 188 0
c gate 189 187 -188 0
187 -189 0
-188 -189 0
-187 188 189 0
c gate 190 -184 -189 0
-184 -190 0
-189 -190 0
184 189 190 0
c gate 191 10 -26 0
10 -191 0
-26 -191 0
-10 26 191 0
c gate 192 -183 -191 0
-183 -192 0
-191 -192 0
183 191 192 0
c gate 193 -190 192 0
-190 -193 0
192 -193 0
190 -192 193 0
c gate 194 -183 -193 0
-183 -194 0
-193 -194 0
183 193 194 0
c gate 195 -71 -72 0
-71 -195 0
-72 -195 0
71 72 195 0
c gate 196 -11 12 0
-11 -196 0
12 -196 0
11 -12 196 0
c gate 197 -28 196 0
-28 -197 0
196 -197 0
28 -196 197 0
c gate 198 195 -197 0
195 -198 0
-197 -198 0
-195 197 198 0
c gate 199 -68 -110 0
-68 -199 0
-110 -199 0
68 110 199 0
c gate 200 -198 199 0
-198 -200 0
199 -200 0
198 -199 200 0
c gate 201 -194 200 0
-194 -201 0
200 -201 0
194 -200 201 0
c gate 202 -128 -133 0
-128 -202 0
-133 -202 0
128 133 202 0
c gate 203 -156 202 0
-156 -203 0
202 -203 0
156 -202 203 0
c gate 204 201 203 0
201 -204 0
203 -204 0
-201 -203 204 0
c gate 205 201 -204 0
201 -205 0
-204 -205 0
-201 204 205 0
c gate 206 194 195 0
194 -206 0
195 -206 0
-194 -195 206 0
c gate 207 -194 -195 0
-194 -207 0
-195 -207 0
194 195 207 0
c gate 208 -206 -207 0
-206 -208 0
-207 -208 0
206 207 208 0
c gate 209 -187 192 0
-187 -209 0
192 -209 0
187 -192 209 0
c gate 210 -191 -209 0
-191 -210 0
-209 -210 0
191 209 210 0
c gate 211 195 -210 0
195 -211 0
-210 -211 0
-195 210 211 0
c gate 212 -208 -211 0
-208 -212 0
-211 -212 0
208 211 212 0
c gate 213 187 -192 0
187 -213 0
-192 -213 0
-187 192 213 0
c gate 214 -209 -213 0
-209 -214 0
-213 -214 0
209 213 214 0
c gate 215 190 -192 0
190 -215 0
-192 -215 0
-190 192 215 0
c gate 216 -193 -215 0
-193 -216 0
-215 -216 0
193 215 216 0
c gate 217 -214 -216 0
-214 -217 0
-216 -217 0
214 216 217 0
c gate 218 214 216 0
214 -218 0
216 -218 0
-214 -216 218 0
c gate 219 -59 182 0
-59 -219 0
182 -219 0
59 -182 219 0
c gate 220 -188 -219 0
-188 -220 0
-219 -220 0
188 219 220 0
c gate 221 -184 -186 0
-184 -221 0
-186 -221 0
184 186 221 0
c gate 222 188 -221 0
188 -222 0
-221 -222 0
-188 221 222 0
c gate 223 -220 -222 0
-220 -223 0
-222 -223 0
220 222 223 0
c gate 224 -218 -223 0
-218 -224 0
-223 -224 0
218 223 224 0
c gate 225 -217 -224 0
-217 -225 0
-224 -225 0
217 224 225 0
c gate 226 -212 225 0
-212 -226 0
225 -226 0
212 -225 226 0
c gate 227 -194 211 0
-194 -227 0
211 -227 0
194 -211 227 0
c gate 228 -207 -227 0
-207 -228 0
-227 -228 0
207 227 228 0
c gate 229 -226 228 0
-226 -229 0
228 -229 0
226 -228 229 0
c gate 230 -201 -229 0
-201 -230 0
-229 -230 0
201 229 230 0
c gate 231 -205 -230 0
-205 -231 0
-230 -231 0
205 230 231 0
c gate 232 -182 -231 0
-182 -232 0
-231 -232 0
182 231 232 0
c gate 233 80 84 0
80 -233 0
84 -233 0
-80 -84 233 0
c gate 234 114 -233 0
114 -234 0
-233 -234 0
-114 233 234 0
c gate 235 -123 -234 0
-123 -235 0
-234 -235 0
123 234 235 0
c gate 236 113 -235 0
113 -236 0
-235 -236 0
-113 235 236 0
c gate 237 170 -236 0
170 -237 0
-236 -237 0
-170 236 237 0
c gate 238 176 -237 0
176 -238 0
-237 -238 0
-176 237 238 0
c gate 239 181 -238 0
181 -239 0
-238 -239 0
-181 238 239 0
c gate 240 231 239 0
231 -240 0
239 -240 0
-231 -239 240 0
c gate 241 -232 -240 0
-232 -241 0
-240 -241 0
232 240 241 0
c gate 242 65 241 0
65 -242 0
241 -242 0
-65 -241 242 0
c gate 243 -65 -241 0
-65 -243 0
-241 -243 0
65 241 243 0
c gate 244 -242 -243 0
-242 -244 0
-243 -244 0
242 243 244 0
c PO
244 0
